13593.0	67.0
11394.0	56.0
13580.0	66.0
12321.0	64.0
11338.0	48.0
14108.0	73.0
9764.0	38.0
9813.0	47.0
9341.0	36.0
9360.0	37.0
8230.0	16.0
8632.0	33.0
8739.0	35.0
8497.0	28.0
8317.0	21.0
8439.0	23.0
8440.0	25.0
